(declare-const a Real)
(declare-const b Real)
(declare-const c Real)
(assert (= (+ a b c) 3))
(assert (> a 0))
(assert (> b 0))
(assert (> c 0))
(assert (not (<= (+ (* (pow (* (pow (* 1 (pow 4 -1)) (* 267 c (pow b 4))) (pow (* (/ 1 4) c) (* 83 (pow a 4)))) (pow (+ (* 83 (pow a 4)) (* 267 c (pow b 4))) -1)) (+ (* -83 (pow a 4)) (* -267 c (pow b 4)))) (* -69 a (pow c 4)) (* -69 b (pow a 4)) (* -23 a (pow b 4)) (* -23 b (pow c 4)) (* -21 (pow a 2) (pow c 3)) (* -21 (pow a 3) (pow b 2)) (* 15 (pow b 3) (pow c 2)) (* 21 (pow a 2) (pow b 3)) (* 21 (pow b 2) (pow c 3)) (* 57 (pow a 3) (pow c 2)) (* 56 a b (pow c 3)) (* 65 a c (pow b 3)) (* 65 b c (pow a 3)) (* (/ 27 2) c (pow a 2) (pow b 2))) 0)))
(check-sat)
(get-model)
(exit)